(benchmark gametime
:status unknown
:logic QF_AUFBV
:extrafuns ((gtINDEX55  BitVec[32]))
:extrafuns ((gtFIELD__bitsForTID0__gtAGG____anonstruct_D_Work_4  Array[32:32]))
:extrafuns ((gtINDEX56  BitVec[32]))
:extrafuns ((gtAGG__rtDWork  BitVec[32]))
:extrafuns ((gtINDEX53  BitVec[32]))
:extrafuns ((gtINDEX54  BitVec[32]))
:extrafuns ((gtINDEX51  BitVec[32]))
:extrafuns ((gtINDEX52  BitVec[32]))
:extrafuns ((gtINDEX49  BitVec[32]))
:extrafuns ((gtINDEX50  BitVec[32]))
:extrafuns ((gtINDEX48  BitVec[32]))
:extrafuns ((gtINDEX47  BitVec[32]))
:extrafuns ((gtINDEX46  BitVec[32]))
:extrafuns ((gtINDEX45  BitVec[32]))
:extrafuns ((gtINDEX43  BitVec[32]))
:extrafuns ((gtINDEX44  BitVec[32]))
:extrafuns ((gtINDEX41  BitVec[32]))
:extrafuns ((gtINDEX42  BitVec[32]))
:extrafuns ((gtINDEX39  BitVec[32]))
:extrafuns ((gtINDEX40  BitVec[32]))
:extrafuns ((gtINDEX38  BitVec[32]))
:extrafuns ((gtINDEX36  BitVec[32]))
:extrafuns ((gtINDEX37  BitVec[32]))
:extrafuns ((gtINDEX34  BitVec[32]))
:extrafuns ((gtINDEX35  BitVec[32]))
:extrafuns ((gtINDEX32  BitVec[32]))
:extrafuns ((gtINDEX33  BitVec[32]))
:extrafuns ((gtINDEX30  BitVec[32]))
:extrafuns ((gtINDEX31  BitVec[32]))
:extrafuns ((gtINDEX28  BitVec[32]))
:extrafuns ((gtINDEX29  BitVec[32]))
:extrafuns ((gtINDEX26  BitVec[32]))
:extrafuns ((gtINDEX27  BitVec[32]))
:extrafuns ((gtINDEX24  BitVec[32]))
:extrafuns ((gtINDEX25  BitVec[32]))
:extrafuns ((gtINDEX23  BitVec[32]))
:extrafuns ((gtINDEX22  BitVec[32]))
:extrafuns ((gtINDEX21  BitVec[32]))
:extrafuns ((gtINDEX19  BitVec[32]))
:extrafuns ((gtINDEX20  BitVec[32]))
:extrafuns ((gtINDEX17  BitVec[32]))
:extrafuns ((gtINDEX18  BitVec[32]))
:extrafuns ((gtINDEX15  BitVec[32]))
:extrafuns ((gtINDEX16  BitVec[32]))
:extrafuns ((gtINDEX14  BitVec[32]))
:extrafuns ((gtINDEX12  BitVec[32]))
:extrafuns ((gtINDEX13  BitVec[32]))
:extrafuns ((gtINDEX10  BitVec[32]))
:extrafuns ((gtINDEX11  BitVec[32]))
:extrafuns ((gtINDEX8  BitVec[32]))
:extrafuns ((gtINDEX9  BitVec[32]))
:extrafuns ((gtINDEX6  BitVec[32]))
:extrafuns ((gtINDEX7  BitVec[32]))
:extrafuns ((gtINDEX4  BitVec[32]))
:extrafuns ((gtINDEX5  BitVec[32]))
:extrafuns ((gtINDEX2  BitVec[32]))
:extrafuns ((gtINDEX3  BitVec[32]))
:extrafuns ((gtINDEX0  BitVec[32]))
:extrafuns ((gtINDEX1  BitVec[32]))
:extrafuns ((gtFIELD__is_Eng__gtAGG____anonstruct_bitsForTID0_5_1_  Array[32:1]))
:extrafuns ((gtFIELD__is_Eng__gtAGG____anonstruct_bitsForTID0_5_2_  Array[32:1]))
:extrafuns ((sf_previousEvent_1_  BitVec[32]))
:extrafuns ((sfEvent__2_  BitVec[32]))
:extrafuns ((gtFIELD__is_Eng__gtAGG____anonstruct_bitsForTID0_5  Array[32:1]))
:extrafuns ((gtFIELD__sent__gtAGG____anonstruct_D_Work_4_1_  Array[32:32]))
:extrafuns ((gtFIELD__sent__gtAGG____anonstruct_D_Work_4_2_  Array[32:32]))
:extrafuns ((gtFIELD__is_active_Eng__gtAGG____anonstruct_bitsForTID0_5  Array[32:1]))
:extrafuns ((gtFIELD__is_active_PURI__gtAGG____anonstruct_bitsForTID0_5  Array[32:1]))
:extrafuns ((gtFIELD__is_PVRP__gtAGG____anonstruct_bitsForTID0_5  Array[32:2]))
:extrafuns ((gtFIELD__is_active_PVRP__gtAGG____anonstruct_bitsForTID0_5  Array[32:1]))
:extrafuns ((gtFIELD__is_active_PPVARP__gtAGG____anonstruct_bitsForTID0_5  Array[32:1]))
:extrafuns ((gtFIELD__is_active_PLRI__gtAGG____anonstruct_bitsForTID0_5  Array[32:1]))
:extrafuns ((sfEvent__1_  BitVec[32]))
:extrafuns ((gtFIELD__is_PAVI__gtAGG____anonstruct_bitsForTID0_5  Array[32:3]))
:extrafuns ((gtFIELD__is_active_PAVI__gtAGG____anonstruct_bitsForTID0_5  Array[32:1]))
:extrafuns ((sfEvent_  BitVec[32]))
:extrafuns ((gtFIELD__sent__gtAGG____anonstruct_D_Work_4  Array[32:32]))
:extrapreds ((constraint98 ))
:extrapreds ((constraint97 ))
:extrapreds ((constraint96 ))
:extrapreds ((constraint95 ))
:extrapreds ((constraint94 ))
:extrapreds ((constraint93 ))
:extrapreds ((constraint92 ))
:extrapreds ((constraint91 ))
:extrapreds ((constraint90 ))
:extrapreds ((constraint89 ))
:extrapreds ((constraint88 ))
:extrapreds ((constraint87 ))
:extrapreds ((constraint86 ))
:extrapreds ((constraint85 ))
:extrapreds ((constraint84 ))
:extrapreds ((constraint83 ))
:extrapreds ((constraint82 ))
:extrapreds ((constraint81 ))
:extrapreds ((constraint80 ))
:extrapreds ((constraint79 ))
:extrapreds ((constraint78 ))
:extrapreds ((constraint77 ))
:extrapreds ((constraint76 ))
:extrapreds ((constraint75 ))
:extrapreds ((constraint74 ))
:extrapreds ((constraint73 ))
:extrapreds ((constraint72 ))
:extrapreds ((constraint71 ))
:extrapreds ((constraint70 ))
:extrapreds ((constraint69 ))
:extrapreds ((constraint68 ))
:extrapreds ((constraint67 ))
:extrapreds ((constraint66 ))
:extrapreds ((constraint65 ))
:extrapreds ((constraint64 ))
:extrapreds ((constraint63 ))
:extrapreds ((constraint62 ))
:extrapreds ((constraint61 ))
:extrapreds ((constraint60 ))
:extrapreds ((constraint59 ))
:extrapreds ((constraint58 ))
:extrapreds ((constraint57 ))
:extrapreds ((constraint56 ))
:extrapreds ((constraint55 ))
:extrapreds ((constraint54 ))
:extrapreds ((constraint53 ))
:extrapreds ((constraint52 ))
:extrapreds ((constraint51 ))
:extrapreds ((constraint50 ))
:extrapreds ((constraint49 ))
:extrapreds ((constraint48 ))
:extrapreds ((constraint47 ))
:extrapreds ((constraint46 ))
:extrapreds ((constraint45 ))
:extrapreds ((constraint44 ))
:extrapreds ((constraint43 ))
:extrapreds ((constraint42 ))
:extrapreds ((constraint41 ))
:extrapreds ((constraint40 ))
:extrapreds ((constraint39 ))
:extrapreds ((constraint38 ))
:extrapreds ((constraint37 ))
:extrapreds ((constraint36 ))
:extrapreds ((constraint35 ))
:extrapreds ((constraint34 ))
:extrapreds ((constraint33 ))
:extrapreds ((constraint32 ))
:extrapreds ((constraint31 ))
:extrapreds ((constraint30 ))
:extrapreds ((constraint29 ))
:extrapreds ((constraint28 ))
:extrapreds ((constraint27 ))
:extrapreds ((constraint26 ))
:extrapreds ((constraint25 ))
:extrapreds ((constraint24 ))
:extrapreds ((constraint23 ))
:extrapreds ((constraint22 ))
:extrapreds ((constraint21 ))
:extrapreds ((constraint20 ))
:extrapreds ((constraint19 ))
:extrapreds ((constraint18 ))
:extrapreds ((constraint17 ))
:extrapreds ((constraint16 ))
:extrapreds ((constraint15 ))
:extrapreds ((constraint14 ))
:extrapreds ((constraint13 ))
:extrapreds ((constraint12 ))
:extrapreds ((constraint11 ))
:extrapreds ((constraint10 ))
:extrapreds ((constraint9 ))
:extrapreds ((constraint8 ))
:extrapreds ((constraint7 ))
:extrapreds ((constraint6 ))
:extrapreds ((constraint5 ))
:extrapreds ((constraint4 ))
:extrapreds ((constraint3 ))
:extrapreds ((constraint2 ))
:extrapreds ((constraint1 ))
:extrapreds ((constraint0 ))
:formula
(flet ($x518 (and constraint0 constraint1 constraint2 constraint3 constraint4 constraint5 constraint6 constraint7 constraint8 constraint9 constraint10 constraint11 constraint12 constraint13 constraint14 constraint15 constraint16 constraint17 constraint18 constraint19 constraint20 constraint21 constraint22 constraint23 constraint24 constraint25 constraint26 constraint27 constraint28 constraint29 constraint30 constraint31 constraint32 constraint33 constraint34 constraint35 constraint36 constraint37 constraint38 constraint39 constraint40 constraint41 constraint42 constraint43 constraint44 constraint45 constraint46 constraint47 constraint48 constraint49 constraint50 constraint51 constraint52 constraint53 constraint54 constraint55 constraint56 constraint57 constraint58 constraint59 constraint60 constraint61 constraint62 constraint63 constraint64 constraint65 constraint66 constraint67 constraint68 constraint69 constraint70 constraint71 constraint72 constraint73 constraint74 constraint75 constraint76 constraint77 constraint78 constraint79 constraint80 constraint81 constraint82 constraint83 constraint84 constraint85 constraint86 constraint87 constraint88 constraint89 constraint90 constraint91 constraint92 constraint93 constraint94 constraint95 constraint96 constraint97 constraint98))
(flet ($x318 (= gtINDEX56 (select gtFIELD__bitsForTID0__gtAGG____anonstruct_D_Work_4 gtINDEX55)))
(flet ($x314 (= gtINDEX54 (select gtFIELD__bitsForTID0__gtAGG____anonstruct_D_Work_4 gtINDEX53)))
(flet ($x310 (= gtINDEX52 (select gtFIELD__bitsForTID0__gtAGG____anonstruct_D_Work_4 gtINDEX51)))
(flet ($x306 (= gtINDEX50 (select gtFIELD__bitsForTID0__gtAGG____anonstruct_D_Work_4 gtINDEX49)))
(flet ($x298 (= gtINDEX44 (select gtFIELD__bitsForTID0__gtAGG____anonstruct_D_Work_4 gtINDEX43)))
(flet ($x294 (= gtINDEX42 (select gtFIELD__bitsForTID0__gtAGG____anonstruct_D_Work_4 gtINDEX41)))
(flet ($x290 (= gtINDEX40 (select gtFIELD__bitsForTID0__gtAGG____anonstruct_D_Work_4 gtINDEX39)))
(flet ($x285 (= gtINDEX37 (select gtFIELD__bitsForTID0__gtAGG____anonstruct_D_Work_4 gtINDEX36)))
(flet ($x281 (= gtINDEX35 (select gtFIELD__bitsForTID0__gtAGG____anonstruct_D_Work_4 gtINDEX34)))
(flet ($x277 (= gtINDEX33 (select gtFIELD__bitsForTID0__gtAGG____anonstruct_D_Work_4 gtINDEX32)))
(flet ($x273 (= gtINDEX31 (select gtFIELD__bitsForTID0__gtAGG____anonstruct_D_Work_4 gtINDEX30)))
(flet ($x269 (= gtINDEX29 (select gtFIELD__bitsForTID0__gtAGG____anonstruct_D_Work_4 gtINDEX28)))
(flet ($x265 (= gtINDEX27 (select gtFIELD__bitsForTID0__gtAGG____anonstruct_D_Work_4 gtINDEX26)))
(flet ($x261 (= gtINDEX25 (select gtFIELD__bitsForTID0__gtAGG____anonstruct_D_Work_4 gtINDEX24)))
(flet ($x254 (= gtINDEX20 (select gtFIELD__bitsForTID0__gtAGG____anonstruct_D_Work_4 gtINDEX19)))
(flet ($x250 (= gtINDEX18 (select gtFIELD__bitsForTID0__gtAGG____anonstruct_D_Work_4 gtINDEX17)))
(flet ($x246 (= gtINDEX16 (select gtFIELD__bitsForTID0__gtAGG____anonstruct_D_Work_4 gtINDEX15)))
(flet ($x241 (= gtINDEX13 (select gtFIELD__bitsForTID0__gtAGG____anonstruct_D_Work_4 gtINDEX12)))
(flet ($x237 (= gtINDEX11 (select gtFIELD__bitsForTID0__gtAGG____anonstruct_D_Work_4 gtINDEX10)))
(flet ($x233 (= gtINDEX9 (select gtFIELD__bitsForTID0__gtAGG____anonstruct_D_Work_4 gtINDEX8)))
(flet ($x229 (= gtINDEX7 (select gtFIELD__bitsForTID0__gtAGG____anonstruct_D_Work_4 gtINDEX6)))
(flet ($x225 (= gtINDEX5 (select gtFIELD__bitsForTID0__gtAGG____anonstruct_D_Work_4 gtINDEX4)))
(flet ($x221 (= gtINDEX3 (select gtFIELD__bitsForTID0__gtAGG____anonstruct_D_Work_4 gtINDEX2)))
(flet ($x217 (= gtINDEX1 (select gtFIELD__bitsForTID0__gtAGG____anonstruct_D_Work_4 gtINDEX0)))
(let (?x201 (extract[0:0] bv1[32]))
(let (?x211 (store gtFIELD__is_Eng__gtAGG____anonstruct_bitsForTID0_5_1_ gtINDEX56 ?x201))
(flet ($x402 (iff constraint41 (= gtFIELD__is_Eng__gtAGG____anonstruct_bitsForTID0_5_2_ ?x211)))
(let (?x207 (select gtFIELD__is_Eng__gtAGG____anonstruct_bitsForTID0_5_1_ gtINDEX54))
(let (?x202 (store gtFIELD__is_Eng__gtAGG____anonstruct_bitsForTID0_5 gtINDEX52 ?x201))
(flet ($x396 (iff constraint38 (= gtFIELD__is_Eng__gtAGG____anonstruct_bitsForTID0_5_1_ ?x202)))
(let (?x198 (zero_extend[31] (select gtFIELD__is_Eng__gtAGG____anonstruct_bitsForTID0_5 gtINDEX50)))
(let (?x194 (store gtFIELD__sent__gtAGG____anonstruct_D_Work_4_1_ gtINDEX48 bv0[32]))
(flet ($x392 (iff constraint36 (= gtFIELD__sent__gtAGG____anonstruct_D_Work_4_2_ ?x194)))
(let (?x114 (bvmul bv4294967295[32] bv1[32]))
(flet ($x192 (= (select gtFIELD__sent__gtAGG____anonstruct_D_Work_4_1_ gtINDEX47) ?x114))
(flet ($x188 (= (select gtFIELD__sent__gtAGG____anonstruct_D_Work_4_1_ gtINDEX46) bv9[32]))
(flet ($x184 (= (select gtFIELD__sent__gtAGG____anonstruct_D_Work_4_1_ gtINDEX45) bv4[32]))
(let (?x180 (zero_extend[31] (select gtFIELD__is_Eng__gtAGG____anonstruct_bitsForTID0_5 gtINDEX44)))
(let (?x174 (select gtFIELD__is_active_Eng__gtAGG____anonstruct_bitsForTID0_5 gtINDEX42))
(let (?x168 (select gtFIELD__is_active_PURI__gtAGG____anonstruct_bitsForTID0_5 gtINDEX40))
(flet ($x165 (= (select gtFIELD__sent__gtAGG____anonstruct_D_Work_4_1_ gtINDEX38) bv0[32]))
(let (?x160 (select gtFIELD__is_PVRP__gtAGG____anonstruct_bitsForTID0_5 gtINDEX37))
(let (?x155 (select gtFIELD__is_PVRP__gtAGG____anonstruct_bitsForTID0_5 gtINDEX35))
(let (?x150 (select gtFIELD__is_active_PVRP__gtAGG____anonstruct_bitsForTID0_5 gtINDEX33))
(let (?x144 (select gtFIELD__is_active_PPVARP__gtAGG____anonstruct_bitsForTID0_5 gtINDEX31))
(let (?x138 (select gtFIELD__is_active_PLRI__gtAGG____anonstruct_bitsForTID0_5 gtINDEX29))
(let (?x130 (select gtFIELD__is_PAVI__gtAGG____anonstruct_bitsForTID0_5 gtINDEX27))
(let (?x125 (select gtFIELD__is_active_PAVI__gtAGG____anonstruct_bitsForTID0_5 gtINDEX25))
(flet ($x116 (= gtFIELD__sent__gtAGG____anonstruct_D_Work_4_1_ (store gtFIELD__sent__gtAGG____anonstruct_D_Work_4 gtINDEX23 ?x114)))
(flet ($x111 (= (select gtFIELD__sent__gtAGG____anonstruct_D_Work_4 gtINDEX22) bv9[32]))
(flet ($x106 (= (select gtFIELD__sent__gtAGG____anonstruct_D_Work_4 gtINDEX21) bv4[32]))
(let (?x101 (zero_extend[31] (select gtFIELD__is_Eng__gtAGG____anonstruct_bitsForTID0_5 gtINDEX20)))
(let (?x95 (select gtFIELD__is_active_Eng__gtAGG____anonstruct_bitsForTID0_5 gtINDEX18))
(let (?x89 (select gtFIELD__is_active_PURI__gtAGG____anonstruct_bitsForTID0_5 gtINDEX16))
(flet ($x86 (= (select gtFIELD__sent__gtAGG____anonstruct_D_Work_4 gtINDEX14) bv0[32]))
(let (?x81 (select gtFIELD__is_PVRP__gtAGG____anonstruct_bitsForTID0_5 gtINDEX13))
(let (?x76 (select gtFIELD__is_PVRP__gtAGG____anonstruct_bitsForTID0_5 gtINDEX11))
(let (?x71 (select gtFIELD__is_active_PVRP__gtAGG____anonstruct_bitsForTID0_5 gtINDEX9))
(let (?x65 (select gtFIELD__is_active_PPVARP__gtAGG____anonstruct_bitsForTID0_5 gtINDEX7))
(let (?x59 (select gtFIELD__is_active_PLRI__gtAGG____anonstruct_bitsForTID0_5 gtINDEX5))
(let (?x49 (zero_extend[29] (select gtFIELD__is_PAVI__gtAGG____anonstruct_bitsForTID0_5 gtINDEX3)))
(let (?x42 (select gtFIELD__is_active_PAVI__gtAGG____anonstruct_bitsForTID0_5 gtINDEX1))
(flet ($x517 (and (iff constraint0 (not (= sfEvent_ bv8[32]))) (iff constraint1 (not (= (zero_extend[31] ?x42) bv0[32]))) (iff constraint2 (= ?x49 bv1[32])) (iff constraint3 (not (= sfEvent_ bv2[32]))) (iff constraint4 (not (= sfEvent_ bv3[32]))) (iff constraint5 (not (not (= (zero_extend[31] ?x59) bv0[32])))) (iff constraint6 (not (not (= (zero_extend[31] ?x65) bv0[32])))) (iff constraint7 (not (= (zero_extend[31] ?x71) bv0[32]))) (iff constraint8 (not (= (zero_extend[30] ?x76) bv1[32]))) (iff constraint9 (= (zero_extend[30] ?x81) bv2[32])) (iff constraint10 (not $x86)) (iff constraint11 (not (not (= (zero_extend[31] ?x89) bv0[32])))) (iff constraint12 (not (= (zero_extend[31] ?x95) bv0[32]))) (iff constraint13 (= ?x101 bv1[32])) (iff constraint14 (not $x106)) (iff constraint15 $x111) (iff constraint16 $x116) (iff constraint17 (= sf_previousEvent_1_ sfEvent_)) (iff constraint18 (= sfEvent__1_ bv6[32])) (iff constraint19 (not (= sfEvent__1_ bv8[32]))) (iff constraint20 (not (= (zero_extend[31] ?x125) bv0[32]))) (iff constraint21 (= (zero_extend[29] ?x130) bv1[32])) (iff constraint22 (not (= sfEvent__1_ bv2[32]))) (iff constraint23 (not (= sfEvent__1_ bv3[32]))) (iff constraint24 (not (not (= (zero_extend[31] ?x138) bv0[32])))) (iff constraint25 (not (not (= (zero_extend[31] ?x144) bv0[32])))) (iff constraint26 (not (= (zero_extend[31] ?x150) bv0[32]))) (iff constraint27 (not (= (zero_extend[30] ?x155) bv1[32]))) (iff constraint28 (= (zero_extend[30] ?x160) bv2[32])) (iff constraint29 (not $x165)) (iff constraint30 (not (not (= (zero_extend[31] ?x168) bv0[32])))) (iff constraint31 (not (= (zero_extend[31] ?x174) bv0[32]))) (iff constraint32 (= ?x180 bv1[32])) (iff constraint33 (not $x184)) (iff constraint34 (not $x188)) (iff constraint35 $x192) $x392 (iff constraint37 (= ?x198 bv1[32])) $x396 (iff constraint39 (= sfEvent__2_ sf_previousEvent_1_)) (iff constraint40 (= (zero_extend[31] ?x207) bv1[32])) $x402 (iff constraint42 (= gtINDEX0 gtAGG__rtDWork)) (iff constraint43 $x217) (iff constraint44 (= gtINDEX2 gtAGG__rtDWork)) (iff constraint45 $x221) (iff constraint46 (= gtINDEX4 gtAGG__rtDWork)) (iff constraint47 $x225) (iff constraint48 (= gtINDEX6 gtAGG__rtDWork)) (iff constraint49 $x229) (iff constraint50 (= gtINDEX8 gtAGG__rtDWork)) (iff constraint51 $x233) (iff constraint52 (= gtINDEX10 gtAGG__rtDWork)) (iff constraint53 $x237) (iff constraint54 (= gtINDEX12 gtAGG__rtDWork)) (iff constraint55 $x241) (iff constraint56 (= gtINDEX14 gtAGG__rtDWork)) (iff constraint57 (= gtINDEX15 gtAGG__rtDWork)) (iff constraint58 $x246) (iff constraint59 (= gtINDEX17 gtAGG__rtDWork)) (iff constraint60 $x250) (iff constraint61 (= gtINDEX19 gtAGG__rtDWork)) (iff constraint62 $x254) (iff constraint63 (= gtINDEX21 gtAGG__rtDWork)) (iff constraint64 (= gtINDEX22 gtAGG__rtDWork)) (iff constraint65 (= gtINDEX23 gtAGG__rtDWork)) (iff constraint66 (= gtINDEX24 gtAGG__rtDWork)) (iff constraint67 $x261) (iff constraint68 (= gtINDEX26 gtAGG__rtDWork)) (iff constraint69 $x265) (iff constraint70 (= gtINDEX28 gtAGG__rtDWork)) (iff constraint71 $x269) (iff constraint72 (= gtINDEX30 gtAGG__rtDWork)) (iff constraint73 $x273) (iff constraint74 (= gtINDEX32 gtAGG__rtDWork)) (iff constraint75 $x277) (iff constraint76 (= gtINDEX34 gtAGG__rtDWork)) (iff constraint77 $x281) (iff constraint78 (= gtINDEX36 gtAGG__rtDWork)) (iff constraint79 $x285) (iff constraint80 (= gtINDEX38 gtAGG__rtDWork)) (iff constraint81 (= gtINDEX39 gtAGG__rtDWork)) (iff constraint82 $x290) (iff constraint83 (= gtINDEX41 gtAGG__rtDWork)) (iff constraint84 $x294) (iff constraint85 (= gtINDEX43 gtAGG__rtDWork)) (iff constraint86 $x298) (iff constraint87 (= gtINDEX45 gtAGG__rtDWork)) (iff constraint88 (= gtINDEX46 gtAGG__rtDWork)) (iff constraint89 (= gtINDEX47 gtAGG__rtDWork)) (iff constraint90 (= gtINDEX48 gtAGG__rtDWork)) (iff constraint91 (= gtINDEX49 gtAGG__rtDWork)) (iff constraint92 $x306) (iff constraint93 (= gtINDEX51 gtAGG__rtDWork)) (iff constraint94 $x310) (iff constraint95 (= gtINDEX53 gtAGG__rtDWork)) (iff constraint96 $x314) (iff constraint97 (= gtINDEX55 gtAGG__rtDWork)) (iff constraint98 $x318)))
(and $x517 $x518)))))))))))))))))))))))))))))))))))))))))))))))))))))))))))))))))
)
